
Log started (V11.0.0) Wed May 14 12:43:15 2008

Tried aggregator 1 time.
Reduced MIP has 130 rows, 3001 columns, and 6030 nonzeros.
Presolve time =    0.02 sec.
Clique table members: 100.
MIP emphasis: balance optimality and feasibility.
MIP search method: dynamic search.
Parallel mode: none, using 1 thread.
Root relaxation solution time =    0.08 sec.

        Nodes                                         Cuts/
   Node  Left     Objective  IInf  Best Integer     Best Node    ItCnt     Gap

*     0+    0                        10983.0000      334.6664      335   96.95%
*     0+    0                          403.0000      334.6664      335   16.96%
      0     0      335.2718    55      403.0000      Fract: 5      409   16.81%
*     0+    0                          402.0000      335.2718      409   16.60%
      0     0      354.1787    64      402.0000      Cuts: 32     1457   11.90%
      0     0      356.1656    62      402.0000      Cuts: 30     1809   11.40%
      0     0      357.0075    76      402.0000      Cuts: 21     1895   11.19%
      0     0      357.9669    78      402.0000      Cuts: 24     2012   10.95%
      0     0      358.8406    82      402.0000      Cuts: 21     2045   10.74%
      0     0      358.8409    91      402.0000      Cuts: 15     2077   10.74%
      0     0      358.8411    93      402.0000      Cuts: 12     2109   10.74%
*     0+    0                          401.0000      358.8411     2109   10.51%
*     0+    0                          400.0000      358.8411     2109   10.29%
      0     2      358.8411    93      400.0000      358.8411     2109   10.29%
    100    90      359.9112    65      400.0000      359.0000     7733   10.25%
    200   164      359.0000    50      400.0000      359.0000    16850   10.25%
    300   229      360.0000    39      400.0000      359.0000    26508   10.25%
    400   289      360.7583    55      400.0000      359.0000    38323   10.25%

Cover cuts applied:  24
Mixed integer rounding cuts applied:  23
Zero-half cuts applied:  2
Gomory fractional cuts applied:  1

Solution pool: 5 solutions saved.

MIP - Integer optimal solution:  Objective = 4.0000000000e+002
Solution time =   15.30 sec.  Iterations = 50497  Nodes = 491 (341)


Incumbent solution
Variable Name           Solution Value
Cmax                        400.000000
X_1_25                        1.000000
X_2_6                         1.000000
X_3_9                         1.000000
X_4_27                        1.000000
X_5_15                        1.000000
X_6_13                        1.000000
X_7_7                         1.000000
X_8_26                        1.000000
X_9_29                        1.000000
X_10_22                       1.000000
X_11_10                       1.000000
X_12_23                       1.000000
X_13_24                       1.000000
X_14_2                        1.000000
X_15_27                       1.000000
X_16_19                       1.000000
X_17_4                        1.000000
X_18_14                       1.000000
X_19_9                        1.000000
X_20_27                       1.000000
X_21_13                       1.000000
X_22_24                       1.000000
X_23_18                       1.000000
X_24_19                       1.000000
X_25_23                       1.000000
X_26_12                       1.000000
X_27_11                       1.000000
X_28_18                       1.000000
X_29_21                       1.000000
X_30_10                       1.000000
X_31_30                       1.000000
X_32_17                       1.000000
X_33_30                       1.000000
X_34_28                       1.000000
X_35_25                       1.000000
X_36_7                        1.000000
X_37_14                       1.000000
X_38_24                       1.000000
X_39_20                       1.000000
X_40_14                       1.000000
X_41_8                        1.000000
X_42_19                       1.000000
X_43_21                       1.000000
X_44_6                        1.000000
X_45_9                        1.000000
X_46_17                       1.000000
X_47_8                        1.000000
X_48_22                       1.000000
X_49_2                        1.000000
X_50_16                       1.000000
X_51_19                       1.000000
X_52_1                        1.000000
X_53_23                       1.000000
X_54_26                       1.000000
X_55_20                       1.000000
X_56_4                        1.000000
X_57_3                        1.000000
X_58_22                       1.000000
X_59_4                        1.000000
X_60_5                        1.000000
X_61_6                        1.000000
X_62_28                       1.000000
X_63_13                       1.000000
X_64_28                       1.000000
X_65_21                       1.000000
X_66_30                       1.000000
X_67_18                       1.000000
X_68_11                       1.000000
X_69_12                       1.000000
X_70_14                       1.000000
X_71_17                       1.000000
X_72_16                       1.000000
X_73_25                       1.000000
X_74_7                        1.000000
X_75_1                        1.000000
X_76_7                        1.000000
X_77_2                        1.000000
X_78_15                       1.000000
X_79_15                       1.000000
X_80_8                        1.000000
X_81_29                       1.000000
X_82_20                       1.000000
X_83_26                       1.000000
X_84_4                        1.000000
X_85_5                        1.000000
X_86_3                        1.000000
X_87_8                        1.000000
X_88_21                       1.000000
X_89_10                       1.000000
X_90_5                        1.000000
X_91_3                        1.000000
X_92_16                       1.000000
X_93_1                        1.000000
X_94_10                       1.000000
X_95_30                       1.000000
X_96_16                       1.000000
X_97_11                       1.000000
X_98_29                       1.000000
X_99_5                        1.000000
X_100_12                      1.000000
All other variables in the range 1-3001 are 0.
